
Gurobi 8.1.0 (win64, Python) logging started 11/11/18 16:15:26

Academic license - for non-commercial use only
Optimize a model with 92 rows, 12 columns and 220 nonzeros
Variable types: 0 continuous, 12 integer (0 binary)
Coefficient statistics:
  Matrix range     [3e-02, 3e-01]
  Objective range  [5e+03, 1e+04]
  Bounds range     [0e+00, 0e+00]
  RHS range        [5e-01, 5e+00]
Found heuristic solution: objective 194925.00000
Presolve removed 92 rows and 12 columns
Presolve time: 0.00s
Presolve: All rows and columns removed

Explored 0 nodes (0 simplex iterations) in 0.02 seconds
Thread count was 1 (of 4 available processors)

Solution count 1: 194925 

Optimal solution found (tolerance 1.00e-04)
Best objective 1.949250000000e+05, best bound 1.949250000000e+05, gap 0.0000%

Gurobi 8.1.0 (win64, Python) logging started 11/30/18 07:19:33

Academic license - for non-commercial use only
Optimize a model with 56 rows, 12 columns and 164 nonzeros
Variable types: 0 continuous, 12 integer (0 binary)
Coefficient statistics:
  Matrix range     [3e-02, 1e+00]
  Objective range  [5e+03, 2e+04]
  Bounds range     [0e+00, 0e+00]
  RHS range        [5e-01, 6e+00]
Found heuristic solution: objective 332844.00000
Presolve removed 53 rows and 4 columns
Presolve time: 0.00s
Presolved: 3 rows, 8 columns, 19 nonzeros
Variable types: 0 continuous, 8 integer (0 binary)

Root relaxation: objective 3.358440e+05, 3 iterations, 0.00 seconds

    Nodes    |    Current Node    |     Objective Bounds      |     Work
 Expl Unexpl |  Obj  Depth IntInf | Incumbent    BestBd   Gap | It/Node Time

     0     0 335844.000    0    1 332844.000 335844.000  0.90%     -    0s
     0     0     cutoff    0      332844.000 332844.000  0.00%     -    0s

Cutting planes:
  MIR: 1

Explored 1 nodes (3 simplex iterations) in 0.05 seconds
Thread count was 4 (of 4 available processors)

Solution count 1: 332844 

Optimal solution found (tolerance 1.00e-04)
Best objective 3.328440000000e+05, best bound 3.328440000000e+05, gap 0.0000%

Gurobi 8.1.0 (win64, Python) logging started 11/30/18 10:30:38

Academic license - for non-commercial use only
Optimize a model with 56 rows, 12 columns and 164 nonzeros
Variable types: 0 continuous, 12 integer (0 binary)
Coefficient statistics:
  Matrix range     [3e-02, 1e+00]
  Objective range  [5e+03, 2e+04]
  Bounds range     [0e+00, 0e+00]
  RHS range        [5e-01, 5e+00]
Found heuristic solution: objective 332844.00000
Presolve removed 54 rows and 8 columns
Presolve time: 0.01s
Presolved: 2 rows, 4 columns, 7 nonzeros
Variable types: 0 continuous, 4 integer (0 binary)

Root relaxation: infeasible, 0 iterations, 0.01 seconds

Explored 0 nodes (0 simplex iterations) in 0.10 seconds
Thread count was 4 (of 4 available processors)

Solution count 1: 332844 

Optimal solution found (tolerance 1.00e-04)
Best objective 3.328440000000e+05, best bound 3.328440000000e+05, gap 0.0000%

Gurobi 8.1.0 (win64, Python) logging started 12/01/18 15:33:37

Academic license - for non-commercial use only
Optimize a model with 56 rows, 12 columns and 164 nonzeros
Variable types: 0 continuous, 12 integer (0 binary)
Coefficient statistics:
  Matrix range     [3e-02, 1e+00]
  Objective range  [5e+03, 2e+04]
  Bounds range     [0e+00, 0e+00]
  RHS range        [5e-01, 5e+00]
Found heuristic solution: objective 332844.00000
Presolve removed 54 rows and 8 columns
Presolve time: 0.01s
Presolved: 2 rows, 4 columns, 7 nonzeros
Variable types: 0 continuous, 4 integer (0 binary)

Root relaxation: infeasible, 0 iterations, 0.00 seconds

Explored 0 nodes (0 simplex iterations) in 0.04 seconds
Thread count was 4 (of 4 available processors)

Solution count 1: 332844 

Optimal solution found (tolerance 1.00e-04)
Best objective 3.328440000000e+05, best bound 3.328440000000e+05, gap 0.0000%
Optimize a model with 56 rows, 12 columns and 164 nonzeros
Variable types: 0 continuous, 12 integer (0 binary)
Coefficient statistics:
  Matrix range     [3e-02, 1e+00]
  Objective range  [5e+03, 2e+04]
  Bounds range     [0e+00, 0e+00]
  RHS range        [5e-01, 5e+00]
Found heuristic solution: objective 332844.00000
Presolve removed 54 rows and 8 columns
Presolve time: 0.00s
Presolved: 2 rows, 4 columns, 7 nonzeros
Variable types: 0 continuous, 4 integer (0 binary)

Root relaxation: infeasible, 0 iterations, 0.00 seconds

Explored 0 nodes (0 simplex iterations) in 0.03 seconds
Thread count was 4 (of 4 available processors)

Solution count 1: 332844 

Optimal solution found (tolerance 1.00e-04)
Best objective 3.328440000000e+05, best bound 3.328440000000e+05, gap 0.0000%
Optimize a model with 56 rows, 12 columns and 164 nonzeros
Variable types: 0 continuous, 12 integer (0 binary)
Coefficient statistics:
  Matrix range     [3e-02, 1e+00]
  Objective range  [5e+03, 2e+04]
  Bounds range     [0e+00, 0e+00]
  RHS range        [5e-01, 5e+00]
Found heuristic solution: objective 332844.00000
Presolve removed 54 rows and 8 columns
Presolve time: 0.00s
Presolved: 2 rows, 4 columns, 7 nonzeros
Variable types: 0 continuous, 4 integer (0 binary)

Root relaxation: infeasible, 0 iterations, 0.00 seconds

Explored 0 nodes (0 simplex iterations) in 0.01 seconds
Thread count was 4 (of 4 available processors)

Solution count 1: 332844 

Optimal solution found (tolerance 1.00e-04)
Best objective 3.328440000000e+05, best bound 3.328440000000e+05, gap 0.0000%

Gurobi 8.1.0 (win64, Python) logging started 12/03/18 16:20:49

Academic license - for non-commercial use only
Optimize a model with 56 rows, 12 columns and 164 nonzeros
Variable types: 0 continuous, 12 integer (0 binary)
Coefficient statistics:
  Matrix range     [3e-02, 1e+00]
  Objective range  [5e+03, 2e+04]
  Bounds range     [0e+00, 0e+00]
  RHS range        [5e-01, 5e+00]
Found heuristic solution: objective 334870.00000
Presolve removed 56 rows and 12 columns
Presolve time: 0.00s
Presolve: All rows and columns removed

Explored 0 nodes (0 simplex iterations) in 0.04 seconds
Thread count was 1 (of 4 available processors)

Solution count 1: 334870 

Optimal solution found (tolerance 1.00e-04)
Best objective 3.348700000000e+05, best bound 3.348700000000e+05, gap 0.0000%
Optimize a model with 56 rows, 12 columns and 164 nonzeros
Variable types: 0 continuous, 12 integer (0 binary)
Coefficient statistics:
  Matrix range     [3e-02, 1e+00]
  Objective range  [5e+03, 2e+04]
  Bounds range     [0e+00, 0e+00]
  RHS range        [5e-01, 5e+00]
Found heuristic solution: objective 332844.00000
Presolve removed 56 rows and 12 columns
Presolve time: 0.00s
Presolve: All rows and columns removed

Explored 0 nodes (0 simplex iterations) in 0.03 seconds
Thread count was 1 (of 4 available processors)

Solution count 1: 332844 

Optimal solution found (tolerance 1.00e-04)
Best objective 3.328440000000e+05, best bound 3.328440000000e+05, gap 0.0000%
Optimize a model with 56 rows, 12 columns and 164 nonzeros
Variable types: 0 continuous, 12 integer (0 binary)
Coefficient statistics:
  Matrix range     [3e-02, 1e+00]
  Objective range  [5e+03, 2e+04]
  Bounds range     [0e+00, 0e+00]
  RHS range        [5e-01, 5e+00]
Found heuristic solution: objective 332844.00000
Presolve removed 56 rows and 12 columns
Presolve time: 0.00s
Presolve: All rows and columns removed

Explored 0 nodes (0 simplex iterations) in 0.03 seconds
Thread count was 1 (of 4 available processors)

Solution count 1: 332844 

Optimal solution found (tolerance 1.00e-04)
Best objective 3.328440000000e+05, best bound 3.328440000000e+05, gap 0.0000%
Optimize a model with 56 rows, 12 columns and 164 nonzeros
Variable types: 0 continuous, 12 integer (0 binary)
Coefficient statistics:
  Matrix range     [3e-02, 1e+00]
  Objective range  [5e+03, 2e+04]
  Bounds range     [0e+00, 0e+00]
  RHS range        [5e-01, 5e+00]
Found heuristic solution: objective 332844.00000
Presolve removed 56 rows and 12 columns
Presolve time: 0.00s
Presolve: All rows and columns removed

Explored 0 nodes (0 simplex iterations) in 0.04 seconds
Thread count was 1 (of 4 available processors)

Solution count 1: 332844 

Optimal solution found (tolerance 1.00e-04)
Best objective 3.328440000000e+05, best bound 3.328440000000e+05, gap 0.0000%
